\ENCODING=ISO-8859-1
\Problem name: bSARP

Maximize
 obj: 7.856 x(0,9,0) + 8.425 x(0,10,0) + 7.856 x(0,11,0) + 8.136 x(0,12,0)
      + 7.856 x(0,13,0) + 7.77 x(0,14,0) + 7.856 x(0,15,0) + 7.869 x(0,16,0)
      + 7.856 x(0,17,0) + 8.776 x(0,37,0) + 13.659 x(1,9,0) + 13.573 x(1,14,0)
      + 13.659 x(1,15,0) + 7.635 x(2,9,0) + 7.249 x(2,14,0) + 7.635 x(2,15,0)
      + 14.552 x(3,9,0) + 14.565 x(3,16,0) + 14.552 x(3,17,0) + 7.52 x(4,9,0)
      + 6.691 x(4,16,0) + 7.52 x(4,17,0) + 6.495 x(5,9,0) + 7.064 x(5,10,0)
      + 6.495 x(5,11,0) + 6.775 x(5,12,0) + 6.495 x(5,13,0) + 7.415 x(5,37,0)
      + 6.611 x(6,9,0) + 6.594 x(6,10,0) + 6.611 x(6,11,0) + 6.226 x(6,12,0)
      + 6.611 x(6,13,0) + 7.77 x(6,37,0) + 6.595 x(7,9,0) + 7.164 x(7,10,0)
      + 6.595 x(7,11,0) + 6.875 x(7,12,0) + 6.595 x(7,13,0) + 7.515 x(7,37,0)
      + 6.809 x(8,9,0) + 6.792 x(8,10,0) + 6.809 x(8,11,0) + 6.424 x(8,12,0)
      + 6.809 x(8,13,0) + 7.869 x(8,37,0) + 8.158 x(9,37,0) + 6.999 x(14,37,0)
      + 6.973 x(15,37,0) + 7.098 x(16,37,0) + 7.218 x(17,37,0)
      + 7.851 x(18,0,0) + 7.971 x(18,1,0) + 7.851 x(18,2,0) + 7.677 x(18,3,0)
      + 7.851 x(18,4,0) + 8.183 x(18,5,0) + 7.851 x(18,6,0) + 8.417 x(18,7,0)
      + 7.851 x(18,8,0) + 8.219 x(18,9,0) + 7.971 x(18,10,0) + 8.219 x(18,11,0)
      + 7.677 x(18,12,0) + 8.219 x(18,13,0) + 8.183 x(18,14,0)
      + 8.219 x(18,15,0) + 8.417 x(18,16,0) + 8.219 x(18,17,0)
      + 7.886 x(18,27,0) + 7.971 x(18,28,0) + 7.886 x(18,29,0)
      + 7.677 x(18,30,0) + 7.886 x(18,31,0) + 8.183 x(18,32,0)
      + 7.886 x(18,33,0) + 8.417 x(18,34,0) + 7.886 x(18,35,0)
      + 8.89 x(18,37,0) + 12.938 x(19,0,0) + 13.27 x(19,5,0) + 12.938 x(19,6,0)
      + 13.306 x(19,9,0) + 13.27 x(19,14,0) + 13.306 x(19,15,0)
      + 12.973 x(19,27,0) + 13.27 x(19,32,0) + 12.973 x(19,33,0)
      + 7.422 x(20,0,0) + 6.795 x(20,5,0) + 7.422 x(20,6,0) + 7.181 x(20,9,0)
      + 6.795 x(20,14,0) + 7.181 x(20,15,0) + 6.906 x(20,27,0)
      + 6.795 x(20,32,0) + 6.906 x(20,33,0) + 13.443 x(21,0,0)
      + 14.009 x(21,7,0) + 13.443 x(21,8,0) + 13.811 x(21,9,0)
      + 14.009 x(21,16,0) + 13.811 x(21,17,0) + 13.478 x(21,27,0)
      + 14.009 x(21,34,0) + 13.478 x(21,35,0) + 7.483 x(22,0,0)
      + 6.232 x(22,7,0) + 7.483 x(22,8,0) + 7.061 x(22,9,0) + 6.232 x(22,16,0)
      + 7.061 x(22,17,0) + 7.124 x(22,27,0) + 6.232 x(22,34,0)
      + 7.124 x(22,35,0) + 7.851 x(23,0,0) + 7.971 x(23,1,0) + 7.851 x(23,2,0)
      + 7.677 x(23,3,0) + 7.851 x(23,4,0) + 8.219 x(23,9,0) + 7.971 x(23,10,0)
      + 8.219 x(23,11,0) + 7.677 x(23,12,0) + 8.219 x(23,13,0)
      + 7.886 x(23,27,0) + 7.971 x(23,28,0) + 7.886 x(23,29,0)
      + 7.677 x(23,30,0) + 7.886 x(23,31,0) + 8.89 x(23,37,0) + 6.822 x(24,0,0)
      + 7.007 x(24,1,0) + 6.822 x(24,2,0) + 6.639 x(24,3,0) + 6.822 x(24,4,0)
      + 7.024 x(24,9,0) + 7.007 x(24,10,0) + 7.024 x(24,11,0)
      + 6.639 x(24,12,0) + 7.024 x(24,13,0) + 6.711 x(24,27,0)
      + 7.007 x(24,28,0) + 6.711 x(24,29,0) + 6.639 x(24,30,0)
      + 6.711 x(24,31,0) + 8.183 x(24,37,0) + 7.477 x(25,0,0) + 7.597 x(25,1,0)
      + 7.477 x(25,2,0) + 7.303 x(25,3,0) + 7.477 x(25,4,0) + 7.845 x(25,9,0)
      + 7.597 x(25,10,0) + 7.845 x(25,11,0) + 7.303 x(25,12,0)
      + 7.845 x(25,13,0) + 7.512 x(25,27,0) + 7.597 x(25,28,0)
      + 7.512 x(25,29,0) + 7.303 x(25,30,0) + 7.512 x(25,31,0)
      + 8.516 x(25,37,0) + 7.156 x(26,0,0) + 7.34 x(26,1,0) + 7.156 x(26,2,0)
      + 6.972 x(26,3,0) + 7.156 x(26,4,0) + 7.357 x(26,9,0) + 7.34 x(26,10,0)
      + 7.357 x(26,11,0) + 6.972 x(26,12,0) + 7.357 x(26,13,0)
      + 7.044 x(26,27,0) + 7.34 x(26,28,0) + 7.044 x(26,29,0)
      + 6.972 x(26,30,0) + 7.044 x(26,31,0) + 8.417 x(26,37,0)
      + 7.159 x(27,0,0) + 6.735 x(27,1,0) + 7.159 x(27,2,0) + 7.325 x(27,3,0)
      + 7.159 x(27,4,0) + 6.308 x(27,5,0) + 7.159 x(27,6,0) + 6.485 x(27,7,0)
      + 7.159 x(27,8,0) + 7.263 x(27,9,0) + 6.735 x(27,10,0) + 7.263 x(27,11,0)
      + 7.325 x(27,12,0) + 7.263 x(27,13,0) + 6.308 x(27,14,0)
      + 7.263 x(27,15,0) + 6.485 x(27,16,0) + 7.263 x(27,17,0)
      + 7.93 x(27,37,0) + 12.446 x(28,0,0) + 11.595 x(28,5,0)
      + 12.446 x(28,6,0) + 12.55 x(28,9,0) + 11.595 x(28,14,0)
      + 12.55 x(28,15,0) + 6.186 x(29,0,0) + 6.186 x(29,6,0) + 5.945 x(29,9,0)
      + 5.559 x(29,14,0) + 5.945 x(29,15,0) + 13.496 x(30,0,0)
      + 12.822 x(30,7,0) + 13.496 x(30,8,0) + 13.6 x(30,9,0)
      + 12.822 x(30,16,0) + 13.6 x(30,17,0) + 7.131 x(31,0,0) + 7.131 x(31,8,0)
      + 6.709 x(31,9,0) + 5.88 x(31,16,0) + 6.709 x(31,17,0) + 5.687 x(32,0,0)
      + 5.263 x(32,1,0) + 5.687 x(32,2,0) + 5.853 x(32,3,0) + 5.687 x(32,4,0)
      + 5.791 x(32,9,0) + 5.263 x(32,10,0) + 5.791 x(32,11,0)
      + 5.853 x(32,12,0) + 5.791 x(32,13,0) + 6.458 x(32,37,0)
      + 4.947 x(33,0,0) + 4.947 x(33,2,0) + 4.947 x(33,4,0) + 5.149 x(33,9,0)
      + 5.132 x(33,10,0) + 5.149 x(33,11,0) + 4.764 x(33,12,0)
      + 5.149 x(33,13,0) + 6.308 x(33,37,0) + 5.786 x(34,0,0) + 5.362 x(34,1,0)
      + 5.786 x(34,2,0) + 5.952 x(34,3,0) + 5.786 x(34,4,0) + 5.89 x(34,9,0)
      + 5.362 x(34,10,0) + 5.89 x(34,11,0) + 5.952 x(34,12,0) + 5.89 x(34,13,0)
      + 6.557 x(34,37,0) + 5.224 x(35,0,0) + 5.224 x(35,2,0) + 5.224 x(35,4,0)
      + 5.425 x(35,9,0) + 5.408 x(35,10,0) + 5.425 x(35,11,0) + 5.04 x(35,12,0)
      + 5.425 x(35,13,0) + 6.485 x(35,37,0) - 1.463 x(36,0,0) - 1.459 x(36,1,0)
      - 1.463 x(36,2,0) - 1.669 x(36,3,0) - 1.463 x(36,4,0) - 1.129 x(36,9,0)
      - 1.459 x(36,10,0) - 1.129 x(36,11,0) - 1.669 x(36,12,0)
      - 1.129 x(36,13,0) - 0.397 x(36,18,0) - 1.459 x(36,19,0)
      - 0.397 x(36,20,0) - 1.669 x(36,21,0) - 0.397 x(36,22,0)
      - 1.366 x(36,27,0) - 1.459 x(36,28,0) - 1.366 x(36,29,0)
      - 1.669 x(36,30,0) - 1.366 x(36,31,0) + id472
Subject To
 Constraint1_0:    x(0,9,0) + x(0,10,0) + x(0,11,0) + x(0,12,0) + x(0,13,0)
                   + x(0,14,0) + x(0,15,0) + x(0,16,0) + x(0,17,0) + x(0,37,0)
                   + x(1,9,0) + x(1,14,0) + x(1,15,0) + x(2,9,0) + x(2,14,0)
                   + x(2,15,0) + x(3,9,0) + x(3,16,0) + x(3,17,0) + x(4,9,0)
                   + x(4,16,0) + x(4,17,0) + x(5,9,0) + x(5,10,0) + x(5,11,0)
                   + x(5,12,0) + x(5,13,0) + x(5,37,0) + x(6,9,0) + x(6,10,0)
                   + x(6,11,0) + x(6,12,0) + x(6,13,0) + x(6,37,0) + x(7,9,0)
                   + x(7,10,0) + x(7,11,0) + x(7,12,0) + x(7,13,0) + x(7,37,0)
                   + x(8,9,0) + x(8,10,0) + x(8,11,0) + x(8,12,0) + x(8,13,0)
                   + x(8,37,0)  = 1
 Constraint1_1:    x(9,37,0) + x(14,37,0) + x(15,37,0) + x(16,37,0)
                   + x(17,37,0)  = 1
 Constraint1_2:    x(18,0,0) + x(18,1,0) + x(18,2,0) + x(18,3,0) + x(18,4,0)
                   + x(18,5,0) + x(18,6,0) + x(18,7,0) + x(18,8,0) + x(18,9,0)
                   + x(18,10,0) + x(18,11,0) + x(18,12,0) + x(18,13,0)
                   + x(18,14,0) + x(18,15,0) + x(18,16,0) + x(18,17,0)
                   + x(18,27,0) + x(18,28,0) + x(18,29,0) + x(18,30,0)
                   + x(18,31,0) + x(18,32,0) + x(18,33,0) + x(18,34,0)
                   + x(18,35,0) + x(18,37,0) + x(19,0,0) + x(19,5,0)
                   + x(19,6,0) + x(19,9,0) + x(19,14,0) + x(19,15,0)
                   + x(19,27,0) + x(19,32,0) + x(19,33,0) + x(20,0,0)
                   + x(20,5,0) + x(20,6,0) + x(20,9,0) + x(20,14,0)
                   + x(20,15,0) + x(20,27,0) + x(20,32,0) + x(20,33,0)
                   + x(21,0,0) + x(21,7,0) + x(21,8,0) + x(21,9,0) + x(21,16,0)
                   + x(21,17,0) + x(21,27,0) + x(21,34,0) + x(21,35,0)
                   + x(22,0,0) + x(22,7,0) + x(22,8,0) + x(22,9,0) + x(22,16,0)
                   + x(22,17,0) + x(22,27,0) + x(22,34,0) + x(22,35,0)
                   + x(23,0,0) + x(23,1,0) + x(23,2,0) + x(23,3,0) + x(23,4,0)
                   + x(23,9,0) + x(23,10,0) + x(23,11,0) + x(23,12,0)
                   + x(23,13,0) + x(23,27,0) + x(23,28,0) + x(23,29,0)
                   + x(23,30,0) + x(23,31,0) + x(23,37,0) + x(24,0,0)
                   + x(24,1,0) + x(24,2,0) + x(24,3,0) + x(24,4,0) + x(24,9,0)
                   + x(24,10,0) + x(24,11,0) + x(24,12,0) + x(24,13,0)
                   + x(24,27,0) + x(24,28,0) + x(24,29,0) + x(24,30,0)
                   + x(24,31,0) + x(24,37,0) + x(25,0,0) + x(25,1,0)
                   + x(25,2,0) + x(25,3,0) + x(25,4,0) + x(25,9,0) + x(25,10,0)
                   + x(25,11,0) + x(25,12,0) + x(25,13,0) + x(25,27,0)
                   + x(25,28,0) + x(25,29,0) + x(25,30,0) + x(25,31,0)
                   + x(25,37,0) + x(26,0,0) + x(26,1,0) + x(26,2,0) + x(26,3,0)
                   + x(26,4,0) + x(26,9,0) + x(26,10,0) + x(26,11,0)
                   + x(26,12,0) + x(26,13,0) + x(26,27,0) + x(26,28,0)
                   + x(26,29,0) + x(26,30,0) + x(26,31,0) + x(26,37,0)  = 1
 Constraint1_3:    x(27,0,0) + x(27,1,0) + x(27,2,0) + x(27,3,0) + x(27,4,0)
                   + x(27,5,0) + x(27,6,0) + x(27,7,0) + x(27,8,0) + x(27,9,0)
                   + x(27,10,0) + x(27,11,0) + x(27,12,0) + x(27,13,0)
                   + x(27,14,0) + x(27,15,0) + x(27,16,0) + x(27,17,0)
                   + x(27,37,0) + x(28,0,0) + x(28,5,0) + x(28,6,0) + x(28,9,0)
                   + x(28,14,0) + x(28,15,0) + x(29,0,0) + x(29,6,0)
                   + x(29,9,0) + x(29,14,0) + x(29,15,0) + x(30,0,0)
                   + x(30,7,0) + x(30,8,0) + x(30,9,0) + x(30,16,0)
                   + x(30,17,0) + x(31,0,0) + x(31,8,0) + x(31,9,0)
                   + x(31,16,0) + x(31,17,0) + x(32,0,0) + x(32,1,0)
                   + x(32,2,0) + x(32,3,0) + x(32,4,0) + x(32,9,0) + x(32,10,0)
                   + x(32,11,0) + x(32,12,0) + x(32,13,0) + x(32,37,0)
                   + x(33,0,0) + x(33,2,0) + x(33,4,0) + x(33,9,0) + x(33,10,0)
                   + x(33,11,0) + x(33,12,0) + x(33,13,0) + x(33,37,0)
                   + x(34,0,0) + x(34,1,0) + x(34,2,0) + x(34,3,0) + x(34,4,0)
                   + x(34,9,0) + x(34,10,0) + x(34,11,0) + x(34,12,0)
                   + x(34,13,0) + x(34,37,0) + x(35,0,0) + x(35,2,0)
                   + x(35,4,0) + x(35,9,0) + x(35,10,0) + x(35,11,0)
                   + x(35,12,0) + x(35,13,0) + x(35,37,0)  = 1
 Constraint2_0:    x(18,0,0) + x(18,1,0) + x(18,2,0) + x(18,3,0) + x(18,4,0)
                   + x(18,5,0) + x(18,6,0) + x(18,7,0) + x(18,8,0) + x(19,0,0)
                   + x(19,5,0) + x(19,6,0) + x(20,0,0) + x(20,5,0) + x(20,6,0)
                   + x(21,0,0) + x(21,7,0) + x(21,8,0) + x(22,0,0) + x(22,7,0)
                   + x(22,8,0) + x(23,0,0) + x(23,1,0) + x(23,2,0) + x(23,3,0)
                   + x(23,4,0) + x(24,0,0) + x(24,1,0) + x(24,2,0) + x(24,3,0)
                   + x(24,4,0) + x(25,0,0) + x(25,1,0) + x(25,2,0) + x(25,3,0)
                   + x(25,4,0) + x(26,0,0) + x(26,1,0) + x(26,2,0) + x(26,3,0)
                   + x(26,4,0) + x(27,0,0) + x(27,1,0) + x(27,2,0) + x(27,3,0)
                   + x(27,4,0) + x(27,5,0) + x(27,6,0) + x(27,7,0) + x(27,8,0)
                   + x(28,0,0) + x(28,5,0) + x(28,6,0) + x(29,0,0) + x(29,6,0)
                   + x(30,0,0) + x(30,7,0) + x(30,8,0) + x(31,0,0) + x(31,8,0)
                   + x(32,0,0) + x(32,1,0) + x(32,2,0) + x(32,3,0) + x(32,4,0)
                   + x(33,0,0) + x(33,2,0) + x(33,4,0) + x(34,0,0) + x(34,1,0)
                   + x(34,2,0) + x(34,3,0) + x(34,4,0) + x(35,0,0) + x(35,2,0)
                   + x(35,4,0) + x(36,0,0) + x(36,1,0) + x(36,2,0) + x(36,3,0)
                   + x(36,4,0)  = 1
 Constraint2_1:    x(0,9,0) + x(0,10,0) + x(0,11,0) + x(0,12,0) + x(0,13,0)
                   + x(0,14,0) + x(0,15,0) + x(0,16,0) + x(0,17,0) + x(1,9,0)
                   + x(1,14,0) + x(1,15,0) + x(2,9,0) + x(2,14,0) + x(2,15,0)
                   + x(3,9,0) + x(3,16,0) + x(3,17,0) + x(4,9,0) + x(4,16,0)
                   + x(4,17,0) + x(5,9,0) + x(5,10,0) + x(5,11,0) + x(5,12,0)
                   + x(5,13,0) + x(6,9,0) + x(6,10,0) + x(6,11,0) + x(6,12,0)
                   + x(6,13,0) + x(7,9,0) + x(7,10,0) + x(7,11,0) + x(7,12,0)
                   + x(7,13,0) + x(8,9,0) + x(8,10,0) + x(8,11,0) + x(8,12,0)
                   + x(8,13,0) + x(18,9,0) + x(18,10,0) + x(18,11,0)
                   + x(18,12,0) + x(18,13,0) + x(18,14,0) + x(18,15,0)
                   + x(18,16,0) + x(18,17,0) + x(19,9,0) + x(19,14,0)
                   + x(19,15,0) + x(20,9,0) + x(20,14,0) + x(20,15,0)
                   + x(21,9,0) + x(21,16,0) + x(21,17,0) + x(22,9,0)
                   + x(22,16,0) + x(22,17,0) + x(23,9,0) + x(23,10,0)
                   + x(23,11,0) + x(23,12,0) + x(23,13,0) + x(24,9,0)
                   + x(24,10,0) + x(24,11,0) + x(24,12,0) + x(24,13,0)
                   + x(25,9,0) + x(25,10,0) + x(25,11,0) + x(25,12,0)
                   + x(25,13,0) + x(26,9,0) + x(26,10,0) + x(26,11,0)
                   + x(26,12,0) + x(26,13,0) + x(27,9,0) + x(27,10,0)
                   + x(27,11,0) + x(27,12,0) + x(27,13,0) + x(27,14,0)
                   + x(27,15,0) + x(27,16,0) + x(27,17,0) + x(28,9,0)
                   + x(28,14,0) + x(28,15,0) + x(29,9,0) + x(29,14,0)
                   + x(29,15,0) + x(30,9,0) + x(30,16,0) + x(30,17,0)
                   + x(31,9,0) + x(31,16,0) + x(31,17,0) + x(32,9,0)
                   + x(32,10,0) + x(32,11,0) + x(32,12,0) + x(32,13,0)
                   + x(33,9,0) + x(33,10,0) + x(33,11,0) + x(33,12,0)
                   + x(33,13,0) + x(34,9,0) + x(34,10,0) + x(34,11,0)
                   + x(34,12,0) + x(34,13,0) + x(35,9,0) + x(35,10,0)
                   + x(35,11,0) + x(35,12,0) + x(35,13,0) + x(36,9,0)
                   + x(36,10,0) + x(36,11,0) + x(36,12,0) + x(36,13,0)  = 1
 Constraint2_2:    x(36,18,0) + x(36,19,0) + x(36,20,0) + x(36,21,0)
                   + x(36,22,0)  = 1
 Constraint2_3:    x(18,27,0) + x(18,28,0) + x(18,29,0) + x(18,30,0)
                   + x(18,31,0) + x(18,32,0) + x(18,33,0) + x(18,34,0)
                   + x(18,35,0) + x(19,27,0) + x(19,32,0) + x(19,33,0)
                   + x(20,27,0) + x(20,32,0) + x(20,33,0) + x(21,27,0)
                   + x(21,34,0) + x(21,35,0) + x(22,27,0) + x(22,34,0)
                   + x(22,35,0) + x(23,27,0) + x(23,28,0) + x(23,29,0)
                   + x(23,30,0) + x(23,31,0) + x(24,27,0) + x(24,28,0)
                   + x(24,29,0) + x(24,30,0) + x(24,31,0) + x(25,27,0)
                   + x(25,28,0) + x(25,29,0) + x(25,30,0) + x(25,31,0)
                   + x(26,27,0) + x(26,28,0) + x(26,29,0) + x(26,30,0)
                   + x(26,31,0) + x(36,27,0) + x(36,28,0) + x(36,29,0)
                   + x(36,30,0) + x(36,31,0)  = 1
 Constraint3_0:    x(36,0,0) + x(36,1,0) + x(36,2,0) + x(36,3,0) + x(36,4,0)
                   + x(36,9,0) + x(36,10,0) + x(36,11,0) + x(36,12,0)
                   + x(36,13,0) + x(36,18,0) + x(36,19,0) + x(36,20,0)
                   + x(36,21,0) + x(36,22,0) + x(36,27,0) + x(36,28,0)
                   + x(36,29,0) + x(36,30,0) + x(36,31,0)  = 1
 Constraint4_0:    x(0,37,0) + x(5,37,0) + x(6,37,0) + x(7,37,0) + x(8,37,0)
                   + x(9,37,0) + x(14,37,0) + x(15,37,0) + x(16,37,0)
                   + x(17,37,0) + x(18,37,0) + x(23,37,0) + x(24,37,0)
                   + x(25,37,0) + x(26,37,0) + x(27,37,0) + x(32,37,0)
                   + x(33,37,0) + x(34,37,0) + x(35,37,0)  = 1
 Constraint5_4:    x(1,9,0) + x(1,14,0) + x(1,15,0) + x(2,9,0) + x(2,14,0)
                   + x(2,15,0) + x(19,0,0) + x(19,5,0) + x(19,6,0) + x(19,9,0)
                   + x(19,14,0) + x(19,15,0) + x(19,27,0) + x(19,32,0)
                   + x(19,33,0) + x(20,0,0) + x(20,5,0) + x(20,6,0) + x(20,9,0)
                   + x(20,14,0) + x(20,15,0) + x(20,27,0) + x(20,32,0)
                   + x(20,33,0) + x(28,0,0) + x(28,5,0) + x(28,6,0) + x(28,9,0)
                   + x(28,14,0) + x(28,15,0) + x(29,0,0) + x(29,6,0)
                   + x(29,9,0) + x(29,14,0) + x(29,15,0) <= 1
 Constraint5_5:    x(3,9,0) + x(3,16,0) + x(3,17,0) + x(4,9,0) + x(4,16,0)
                   + x(4,17,0) + x(21,0,0) + x(21,7,0) + x(21,8,0) + x(21,9,0)
                   + x(21,16,0) + x(21,17,0) + x(21,27,0) + x(21,34,0)
                   + x(21,35,0) + x(22,0,0) + x(22,7,0) + x(22,8,0) + x(22,9,0)
                   + x(22,16,0) + x(22,17,0) + x(22,27,0) + x(22,34,0)
                   + x(22,35,0) + x(30,0,0) + x(30,7,0) + x(30,8,0) + x(30,9,0)
                   + x(30,16,0) + x(30,17,0) + x(31,0,0) + x(31,8,0)
                   + x(31,9,0) + x(31,16,0) + x(31,17,0) <= 1
 Constraint5_6:    x(5,9,0) + x(5,10,0) + x(5,11,0) + x(5,12,0) + x(5,13,0)
                   + x(5,37,0) + x(6,9,0) + x(6,10,0) + x(6,11,0) + x(6,12,0)
                   + x(6,13,0) + x(6,37,0) + x(14,37,0) + x(15,37,0)
                   + x(23,0,0) + x(23,1,0) + x(23,2,0) + x(23,3,0) + x(23,4,0)
                   + x(23,9,0) + x(23,10,0) + x(23,11,0) + x(23,12,0)
                   + x(23,13,0) + x(23,27,0) + x(23,28,0) + x(23,29,0)
                   + x(23,30,0) + x(23,31,0) + x(23,37,0) + x(24,0,0)
                   + x(24,1,0) + x(24,2,0) + x(24,3,0) + x(24,4,0) + x(24,9,0)
                   + x(24,10,0) + x(24,11,0) + x(24,12,0) + x(24,13,0)
                   + x(24,27,0) + x(24,28,0) + x(24,29,0) + x(24,30,0)
                   + x(24,31,0) + x(24,37,0) + x(32,0,0) + x(32,1,0)
                   + x(32,2,0) + x(32,3,0) + x(32,4,0) + x(32,9,0) + x(32,10,0)
                   + x(32,11,0) + x(32,12,0) + x(32,13,0) + x(32,37,0)
                   + x(33,0,0) + x(33,2,0) + x(33,4,0) + x(33,9,0) + x(33,10,0)
                   + x(33,11,0) + x(33,12,0) + x(33,13,0) + x(33,37,0) <= 1
 Constraint5_7:    x(7,9,0) + x(7,10,0) + x(7,11,0) + x(7,12,0) + x(7,13,0)
                   + x(7,37,0) + x(8,9,0) + x(8,10,0) + x(8,11,0) + x(8,12,0)
                   + x(8,13,0) + x(8,37,0) + x(16,37,0) + x(17,37,0)
                   + x(25,0,0) + x(25,1,0) + x(25,2,0) + x(25,3,0) + x(25,4,0)
                   + x(25,9,0) + x(25,10,0) + x(25,11,0) + x(25,12,0)
                   + x(25,13,0) + x(25,27,0) + x(25,28,0) + x(25,29,0)
                   + x(25,30,0) + x(25,31,0) + x(25,37,0) + x(26,0,0)
                   + x(26,1,0) + x(26,2,0) + x(26,3,0) + x(26,4,0) + x(26,9,0)
                   + x(26,10,0) + x(26,11,0) + x(26,12,0) + x(26,13,0)
                   + x(26,27,0) + x(26,28,0) + x(26,29,0) + x(26,30,0)
                   + x(26,31,0) + x(26,37,0) + x(34,0,0) + x(34,1,0)
                   + x(34,2,0) + x(34,3,0) + x(34,4,0) + x(34,9,0) + x(34,10,0)
                   + x(34,11,0) + x(34,12,0) + x(34,13,0) + x(34,37,0)
                   + x(35,0,0) + x(35,2,0) + x(35,4,0) + x(35,9,0) + x(35,10,0)
                   + x(35,11,0) + x(35,12,0) + x(35,13,0) + x(35,37,0) <= 1
 Constraint6_0_0:  x(0,9,0) + x(0,10,0) + x(0,11,0) + x(0,12,0) + x(0,13,0)
                   + x(0,14,0) + x(0,15,0) + x(0,16,0) + x(0,17,0) + x(0,37,0)
                   - x(18,0,0) - x(19,0,0) - x(20,0,0) - x(21,0,0) - x(22,0,0)
                   - x(23,0,0) - x(24,0,0) - x(25,0,0) - x(26,0,0) - x(27,0,0)
                   - x(28,0,0) - x(29,0,0) - x(30,0,0) - x(31,0,0) - x(32,0,0)
                   - x(33,0,0) - x(34,0,0) - x(35,0,0) - x(36,0,0)  = 0
 Constraint6_1_0:  x(1,9,0) + x(1,14,0) + x(1,15,0) - x(18,1,0) - x(23,1,0)
                   - x(24,1,0) - x(25,1,0) - x(26,1,0) - x(27,1,0) - x(32,1,0)
                   - x(34,1,0) - x(36,1,0)  = 0
 Constraint6_2_0:  x(2,9,0) + x(2,14,0) + x(2,15,0) - x(18,2,0) - x(23,2,0)
                   - x(24,2,0) - x(25,2,0) - x(26,2,0) - x(27,2,0) - x(32,2,0)
                   - x(33,2,0) - x(34,2,0) - x(35,2,0) - x(36,2,0)  = 0
 Constraint6_3_0:  x(3,9,0) + x(3,16,0) + x(3,17,0) - x(18,3,0) - x(23,3,0)
                   - x(24,3,0) - x(25,3,0) - x(26,3,0) - x(27,3,0) - x(32,3,0)
                   - x(34,3,0) - x(36,3,0)  = 0
 Constraint6_4_0:  x(4,9,0) + x(4,16,0) + x(4,17,0) - x(18,4,0) - x(23,4,0)
                   - x(24,4,0) - x(25,4,0) - x(26,4,0) - x(27,4,0) - x(32,4,0)
                   - x(33,4,0) - x(34,4,0) - x(35,4,0) - x(36,4,0)  = 0
 Constraint6_5_0:  x(5,9,0) + x(5,10,0) + x(5,11,0) + x(5,12,0) + x(5,13,0)
                   + x(5,37,0) - x(18,5,0) - x(19,5,0) - x(20,5,0) - x(27,5,0)
                   - x(28,5,0)  = 0
 Constraint6_6_0:  x(6,9,0) + x(6,10,0) + x(6,11,0) + x(6,12,0) + x(6,13,0)
                   + x(6,37,0) - x(18,6,0) - x(19,6,0) - x(20,6,0) - x(27,6,0)
                   - x(28,6,0) - x(29,6,0)  = 0
 Constraint6_7_0:  x(7,9,0) + x(7,10,0) + x(7,11,0) + x(7,12,0) + x(7,13,0)
                   + x(7,37,0) - x(18,7,0) - x(21,7,0) - x(22,7,0) - x(27,7,0)
                   - x(30,7,0)  = 0
 Constraint6_8_0:  x(8,9,0) + x(8,10,0) + x(8,11,0) + x(8,12,0) + x(8,13,0)
                   + x(8,37,0) - x(18,8,0) - x(21,8,0) - x(22,8,0) - x(27,8,0)
                   - x(30,8,0) - x(31,8,0)  = 0
 Constraint6_9_0:  - x(0,9,0) - x(1,9,0) - x(2,9,0) - x(3,9,0) - x(4,9,0)
                   - x(5,9,0) - x(6,9,0) - x(7,9,0) - x(8,9,0) + x(9,37,0)
                   - x(18,9,0) - x(19,9,0) - x(20,9,0) - x(21,9,0) - x(22,9,0)
                   - x(23,9,0) - x(24,9,0) - x(25,9,0) - x(26,9,0) - x(27,9,0)
                   - x(28,9,0) - x(29,9,0) - x(30,9,0) - x(31,9,0) - x(32,9,0)
                   - x(33,9,0) - x(34,9,0) - x(35,9,0) - x(36,9,0)  = 0
 Constraint6_10_0: - x(0,10,0) - x(5,10,0) - x(6,10,0) - x(7,10,0) - x(8,10,0)
                   - x(18,10,0) - x(23,10,0) - x(24,10,0) - x(25,10,0)
                   - x(26,10,0) - x(27,10,0) - x(32,10,0) - x(33,10,0)
                   - x(34,10,0) - x(35,10,0) - x(36,10,0)  = 0
 Constraint6_11_0: - x(0,11,0) - x(5,11,0) - x(6,11,0) - x(7,11,0) - x(8,11,0)
                   - x(18,11,0) - x(23,11,0) - x(24,11,0) - x(25,11,0)
                   - x(26,11,0) - x(27,11,0) - x(32,11,0) - x(33,11,0)
                   - x(34,11,0) - x(35,11,0) - x(36,11,0)  = 0
 Constraint6_12_0: - x(0,12,0) - x(5,12,0) - x(6,12,0) - x(7,12,0) - x(8,12,0)
                   - x(18,12,0) - x(23,12,0) - x(24,12,0) - x(25,12,0)
                   - x(26,12,0) - x(27,12,0) - x(32,12,0) - x(33,12,0)
                   - x(34,12,0) - x(35,12,0) - x(36,12,0)  = 0
 Constraint6_13_0: - x(0,13,0) - x(5,13,0) - x(6,13,0) - x(7,13,0) - x(8,13,0)
                   - x(18,13,0) - x(23,13,0) - x(24,13,0) - x(25,13,0)
                   - x(26,13,0) - x(27,13,0) - x(32,13,0) - x(33,13,0)
                   - x(34,13,0) - x(35,13,0) - x(36,13,0)  = 0
 Constraint6_14_0: - x(0,14,0) - x(1,14,0) - x(2,14,0) + x(14,37,0)
                   - x(18,14,0) - x(19,14,0) - x(20,14,0) - x(27,14,0)
                   - x(28,14,0) - x(29,14,0)  = 0
 Constraint6_15_0: - x(0,15,0) - x(1,15,0) - x(2,15,0) + x(15,37,0)
                   - x(18,15,0) - x(19,15,0) - x(20,15,0) - x(27,15,0)
                   - x(28,15,0) - x(29,15,0)  = 0
 Constraint6_16_0: - x(0,16,0) - x(3,16,0) - x(4,16,0) + x(16,37,0)
                   - x(18,16,0) - x(21,16,0) - x(22,16,0) - x(27,16,0)
                   - x(30,16,0) - x(31,16,0)  = 0
 Constraint6_17_0: - x(0,17,0) - x(3,17,0) - x(4,17,0) + x(17,37,0)
                   - x(18,17,0) - x(21,17,0) - x(22,17,0) - x(27,17,0)
                   - x(30,17,0) - x(31,17,0)  = 0
 Constraint6_18_0: x(18,0,0) + x(18,1,0) + x(18,2,0) + x(18,3,0) + x(18,4,0)
                   + x(18,5,0) + x(18,6,0) + x(18,7,0) + x(18,8,0) + x(18,9,0)
                   + x(18,10,0) + x(18,11,0) + x(18,12,0) + x(18,13,0)
                   + x(18,14,0) + x(18,15,0) + x(18,16,0) + x(18,17,0)
                   + x(18,27,0) + x(18,28,0) + x(18,29,0) + x(18,30,0)
                   + x(18,31,0) + x(18,32,0) + x(18,33,0) + x(18,34,0)
                   + x(18,35,0) + x(18,37,0) - x(36,18,0)  = 0
 Constraint6_19_0: x(19,0,0) + x(19,5,0) + x(19,6,0) + x(19,9,0) + x(19,14,0)
                   + x(19,15,0) + x(19,27,0) + x(19,32,0) + x(19,33,0)
                   - x(36,19,0)  = 0
 Constraint6_20_0: x(20,0,0) + x(20,5,0) + x(20,6,0) + x(20,9,0) + x(20,14,0)
                   + x(20,15,0) + x(20,27,0) + x(20,32,0) + x(20,33,0)
                   - x(36,20,0)  = 0
 Constraint6_21_0: x(21,0,0) + x(21,7,0) + x(21,8,0) + x(21,9,0) + x(21,16,0)
                   + x(21,17,0) + x(21,27,0) + x(21,34,0) + x(21,35,0)
                   - x(36,21,0)  = 0
 Constraint6_22_0: x(22,0,0) + x(22,7,0) + x(22,8,0) + x(22,9,0) + x(22,16,0)
                   + x(22,17,0) + x(22,27,0) + x(22,34,0) + x(22,35,0)
                   - x(36,22,0)  = 0
 Constraint6_23_0: x(23,0,0) + x(23,1,0) + x(23,2,0) + x(23,3,0) + x(23,4,0)
                   + x(23,9,0) + x(23,10,0) + x(23,11,0) + x(23,12,0)
                   + x(23,13,0) + x(23,27,0) + x(23,28,0) + x(23,29,0)
                   + x(23,30,0) + x(23,31,0) + x(23,37,0)  = 0
 Constraint6_24_0: x(24,0,0) + x(24,1,0) + x(24,2,0) + x(24,3,0) + x(24,4,0)
                   + x(24,9,0) + x(24,10,0) + x(24,11,0) + x(24,12,0)
                   + x(24,13,0) + x(24,27,0) + x(24,28,0) + x(24,29,0)
                   + x(24,30,0) + x(24,31,0) + x(24,37,0)  = 0
 Constraint6_25_0: x(25,0,0) + x(25,1,0) + x(25,2,0) + x(25,3,0) + x(25,4,0)
                   + x(25,9,0) + x(25,10,0) + x(25,11,0) + x(25,12,0)
                   + x(25,13,0) + x(25,27,0) + x(25,28,0) + x(25,29,0)
                   + x(25,30,0) + x(25,31,0) + x(25,37,0)  = 0
 Constraint6_26_0: x(26,0,0) + x(26,1,0) + x(26,2,0) + x(26,3,0) + x(26,4,0)
                   + x(26,9,0) + x(26,10,0) + x(26,11,0) + x(26,12,0)
                   + x(26,13,0) + x(26,27,0) + x(26,28,0) + x(26,29,0)
                   + x(26,30,0) + x(26,31,0) + x(26,37,0)  = 0
 Constraint6_27_0: - x(18,27,0) - x(19,27,0) - x(20,27,0) - x(21,27,0)
                   - x(22,27,0) - x(23,27,0) - x(24,27,0) - x(25,27,0)
                   - x(26,27,0) + x(27,0,0) + x(27,1,0) + x(27,2,0) + x(27,3,0)
                   + x(27,4,0) + x(27,5,0) + x(27,6,0) + x(27,7,0) + x(27,8,0)
                   + x(27,9,0) + x(27,10,0) + x(27,11,0) + x(27,12,0)
                   + x(27,13,0) + x(27,14,0) + x(27,15,0) + x(27,16,0)
                   + x(27,17,0) + x(27,37,0) - x(36,27,0)  = 0
 Constraint6_28_0: - x(18,28,0) - x(23,28,0) - x(24,28,0) - x(25,28,0)
                   - x(26,28,0) + x(28,0,0) + x(28,5,0) + x(28,6,0) + x(28,9,0)
                   + x(28,14,0) + x(28,15,0) - x(36,28,0)  = 0
 Constraint6_29_0: - x(18,29,0) - x(23,29,0) - x(24,29,0) - x(25,29,0)
                   - x(26,29,0) + x(29,0,0) + x(29,6,0) + x(29,9,0)
                   + x(29,14,0) + x(29,15,0) - x(36,29,0)  = 0
 Constraint6_30_0: - x(18,30,0) - x(23,30,0) - x(24,30,0) - x(25,30,0)
                   - x(26,30,0) + x(30,0,0) + x(30,7,0) + x(30,8,0) + x(30,9,0)
                   + x(30,16,0) + x(30,17,0) - x(36,30,0)  = 0
 Constraint6_31_0: - x(18,31,0) - x(23,31,0) - x(24,31,0) - x(25,31,0)
                   - x(26,31,0) + x(31,0,0) + x(31,8,0) + x(31,9,0)
                   + x(31,16,0) + x(31,17,0) - x(36,31,0)  = 0
 Constraint6_32_0: - x(18,32,0) - x(19,32,0) - x(20,32,0) + x(32,0,0)
                   + x(32,1,0) + x(32,2,0) + x(32,3,0) + x(32,4,0) + x(32,9,0)
                   + x(32,10,0) + x(32,11,0) + x(32,12,0) + x(32,13,0)
                   + x(32,37,0)  = 0
 Constraint6_33_0: - x(18,33,0) - x(19,33,0) - x(20,33,0) + x(33,0,0)
                   + x(33,2,0) + x(33,4,0) + x(33,9,0) + x(33,10,0)
                   + x(33,11,0) + x(33,12,0) + x(33,13,0) + x(33,37,0)  = 0
 Constraint6_34_0: - x(18,34,0) - x(21,34,0) - x(22,34,0) + x(34,0,0)
                   + x(34,1,0) + x(34,2,0) + x(34,3,0) + x(34,4,0) + x(34,9,0)
                   + x(34,10,0) + x(34,11,0) + x(34,12,0) + x(34,13,0)
                   + x(34,37,0)  = 0
 Constraint6_35_0: - x(18,35,0) - x(21,35,0) - x(22,35,0) + x(35,0,0)
                   + x(35,2,0) + x(35,4,0) + x(35,9,0) + x(35,10,0)
                   + x(35,11,0) + x(35,12,0) + x(35,13,0) + x(35,37,0)  = 0
 Constraint7_4_0:  x(0,14,0) + x(0,15,0) + x(1,9,0) + 2 x(1,14,0) + 2 x(1,15,0)
                   + x(2,9,0) + 2 x(2,14,0) + 2 x(2,15,0) + x(18,5,0)
                   + x(18,6,0) + x(18,14,0) + x(18,15,0) + x(18,32,0)
                   + x(18,33,0) + x(19,0,0) + 2 x(19,5,0) + 2 x(19,6,0)
                   + x(19,9,0) + 2 x(19,14,0) + 2 x(19,15,0) + x(19,27,0)
                   + 2 x(19,32,0) + 2 x(19,33,0) + x(20,0,0) + 2 x(20,5,0)
                   + 2 x(20,6,0) + x(20,9,0) + 2 x(20,14,0) + 2 x(20,15,0)
                   + x(20,27,0) + 2 x(20,32,0) + 2 x(20,33,0) + x(27,5,0)
                   + x(27,6,0) + x(27,14,0) + x(27,15,0) + x(28,0,0)
                   + 2 x(28,5,0) + 2 x(28,6,0) + x(28,9,0) + 2 x(28,14,0)
                   + 2 x(28,15,0) + x(29,0,0) + 2 x(29,6,0) + x(29,9,0)
                   + 2 x(29,14,0) + 2 x(29,15,0)  = 0
 Constraint7_5_0:  x(0,16,0) + x(0,17,0) + x(3,9,0) + 2 x(3,16,0) + 2 x(3,17,0)
                   + x(4,9,0) + 2 x(4,16,0) + 2 x(4,17,0) + x(18,7,0)
                   + x(18,8,0) + x(18,16,0) + x(18,17,0) + x(18,34,0)
                   + x(18,35,0) + x(21,0,0) + 2 x(21,7,0) + 2 x(21,8,0)
                   + x(21,9,0) + 2 x(21,16,0) + 2 x(21,17,0) + x(21,27,0)
                   + 2 x(21,34,0) + 2 x(21,35,0) + x(22,0,0) + 2 x(22,7,0)
                   + 2 x(22,8,0) + x(22,9,0) + 2 x(22,16,0) + 2 x(22,17,0)
                   + x(22,27,0) + 2 x(22,34,0) + 2 x(22,35,0) + x(27,7,0)
                   + x(27,8,0) + x(27,16,0) + x(27,17,0) + x(30,0,0)
                   + 2 x(30,7,0) + 2 x(30,8,0) + x(30,9,0) + 2 x(30,16,0)
                   + 2 x(30,17,0) + x(31,0,0) + 2 x(31,8,0) + x(31,9,0)
                   + 2 x(31,16,0) + 2 x(31,17,0)  = 0
 Constraint8:      x(36,18,0)  = 1
 Constraint9:      x(18,31,0)  = 1
 Constraint10:     x(31,8,0)  = 1
Bounds
 0 <= x(0,9,0) <= 1
 0 <= x(0,10,0) <= 1
 0 <= x(0,11,0) <= 1
 0 <= x(0,12,0) <= 1
 0 <= x(0,13,0) <= 1
 0 <= x(0,14,0) <= 1
 0 <= x(0,15,0) <= 1
 0 <= x(0,16,0) <= 1
 0 <= x(0,17,0) <= 1
 0 <= x(0,37,0) <= 1
 0 <= x(1,9,0) <= 1
 0 <= x(1,14,0) <= 1
 0 <= x(1,15,0) <= 1
 0 <= x(2,9,0) <= 1
 0 <= x(2,14,0) <= 1
 0 <= x(2,15,0) <= 1
 0 <= x(3,9,0) <= 1
 0 <= x(3,16,0) <= 1
 0 <= x(3,17,0) <= 1
 0 <= x(4,9,0) <= 1
 0 <= x(4,16,0) <= 1
 0 <= x(4,17,0) <= 1
 0 <= x(5,9,0) <= 1
 0 <= x(5,10,0) <= 1
 0 <= x(5,11,0) <= 1
 0 <= x(5,12,0) <= 1
 0 <= x(5,13,0) <= 1
 0 <= x(5,37,0) <= 1
 0 <= x(6,9,0) <= 1
 0 <= x(6,10,0) <= 1
 0 <= x(6,11,0) <= 1
 0 <= x(6,12,0) <= 1
 0 <= x(6,13,0) <= 1
 0 <= x(6,37,0) <= 1
 0 <= x(7,9,0) <= 1
 0 <= x(7,10,0) <= 1
 0 <= x(7,11,0) <= 1
 0 <= x(7,12,0) <= 1
 0 <= x(7,13,0) <= 1
 0 <= x(7,37,0) <= 1
 0 <= x(8,9,0) <= 1
 0 <= x(8,10,0) <= 1
 0 <= x(8,11,0) <= 1
 0 <= x(8,12,0) <= 1
 0 <= x(8,13,0) <= 1
 0 <= x(8,37,0) <= 1
 0 <= x(9,37,0) <= 1
 0 <= x(14,37,0) <= 1
 0 <= x(15,37,0) <= 1
 0 <= x(16,37,0) <= 1
 0 <= x(17,37,0) <= 1
 0 <= x(18,0,0) <= 1
 0 <= x(18,1,0) <= 1
 0 <= x(18,2,0) <= 1
 0 <= x(18,3,0) <= 1
 0 <= x(18,4,0) <= 1
 0 <= x(18,5,0) <= 1
 0 <= x(18,6,0) <= 1
 0 <= x(18,7,0) <= 1
 0 <= x(18,8,0) <= 1
 0 <= x(18,9,0) <= 1
 0 <= x(18,10,0) <= 1
 0 <= x(18,11,0) <= 1
 0 <= x(18,12,0) <= 1
 0 <= x(18,13,0) <= 1
 0 <= x(18,14,0) <= 1
 0 <= x(18,15,0) <= 1
 0 <= x(18,16,0) <= 1
 0 <= x(18,17,0) <= 1
 0 <= x(18,27,0) <= 1
 0 <= x(18,28,0) <= 1
 0 <= x(18,29,0) <= 1
 0 <= x(18,30,0) <= 1
 0 <= x(18,31,0) <= 1
 0 <= x(18,32,0) <= 1
 0 <= x(18,33,0) <= 1
 0 <= x(18,34,0) <= 1
 0 <= x(18,35,0) <= 1
 0 <= x(18,37,0) <= 1
 0 <= x(19,0,0) <= 1
 0 <= x(19,5,0) <= 1
 0 <= x(19,6,0) <= 1
 0 <= x(19,9,0) <= 1
 0 <= x(19,14,0) <= 1
 0 <= x(19,15,0) <= 1
 0 <= x(19,27,0) <= 1
 0 <= x(19,32,0) <= 1
 0 <= x(19,33,0) <= 1
 0 <= x(20,0,0) <= 1
 0 <= x(20,5,0) <= 1
 0 <= x(20,6,0) <= 1
 0 <= x(20,9,0) <= 1
 0 <= x(20,14,0) <= 1
 0 <= x(20,15,0) <= 1
 0 <= x(20,27,0) <= 1
 0 <= x(20,32,0) <= 1
 0 <= x(20,33,0) <= 1
 0 <= x(21,0,0) <= 1
 0 <= x(21,7,0) <= 1
 0 <= x(21,8,0) <= 1
 0 <= x(21,9,0) <= 1
 0 <= x(21,16,0) <= 1
 0 <= x(21,17,0) <= 1
 0 <= x(21,27,0) <= 1
 0 <= x(21,34,0) <= 1
 0 <= x(21,35,0) <= 1
 0 <= x(22,0,0) <= 1
 0 <= x(22,7,0) <= 1
 0 <= x(22,8,0) <= 1
 0 <= x(22,9,0) <= 1
 0 <= x(22,16,0) <= 1
 0 <= x(22,17,0) <= 1
 0 <= x(22,27,0) <= 1
 0 <= x(22,34,0) <= 1
 0 <= x(22,35,0) <= 1
 0 <= x(23,0,0) <= 1
 0 <= x(23,1,0) <= 1
 0 <= x(23,2,0) <= 1
 0 <= x(23,3,0) <= 1
 0 <= x(23,4,0) <= 1
 0 <= x(23,9,0) <= 1
 0 <= x(23,10,0) <= 1
 0 <= x(23,11,0) <= 1
 0 <= x(23,12,0) <= 1
 0 <= x(23,13,0) <= 1
 0 <= x(23,27,0) <= 1
 0 <= x(23,28,0) <= 1
 0 <= x(23,29,0) <= 1
 0 <= x(23,30,0) <= 1
 0 <= x(23,31,0) <= 1
 0 <= x(23,37,0) <= 1
 0 <= x(24,0,0) <= 1
 0 <= x(24,1,0) <= 1
 0 <= x(24,2,0) <= 1
 0 <= x(24,3,0) <= 1
 0 <= x(24,4,0) <= 1
 0 <= x(24,9,0) <= 1
 0 <= x(24,10,0) <= 1
 0 <= x(24,11,0) <= 1
 0 <= x(24,12,0) <= 1
 0 <= x(24,13,0) <= 1
 0 <= x(24,27,0) <= 1
 0 <= x(24,28,0) <= 1
 0 <= x(24,29,0) <= 1
 0 <= x(24,30,0) <= 1
 0 <= x(24,31,0) <= 1
 0 <= x(24,37,0) <= 1
 0 <= x(25,0,0) <= 1
 0 <= x(25,1,0) <= 1
 0 <= x(25,2,0) <= 1
 0 <= x(25,3,0) <= 1
 0 <= x(25,4,0) <= 1
 0 <= x(25,9,0) <= 1
 0 <= x(25,10,0) <= 1
 0 <= x(25,11,0) <= 1
 0 <= x(25,12,0) <= 1
 0 <= x(25,13,0) <= 1
 0 <= x(25,27,0) <= 1
 0 <= x(25,28,0) <= 1
 0 <= x(25,29,0) <= 1
 0 <= x(25,30,0) <= 1
 0 <= x(25,31,0) <= 1
 0 <= x(25,37,0) <= 1
 0 <= x(26,0,0) <= 1
 0 <= x(26,1,0) <= 1
 0 <= x(26,2,0) <= 1
 0 <= x(26,3,0) <= 1
 0 <= x(26,4,0) <= 1
 0 <= x(26,9,0) <= 1
 0 <= x(26,10,0) <= 1
 0 <= x(26,11,0) <= 1
 0 <= x(26,12,0) <= 1
 0 <= x(26,13,0) <= 1
 0 <= x(26,27,0) <= 1
 0 <= x(26,28,0) <= 1
 0 <= x(26,29,0) <= 1
 0 <= x(26,30,0) <= 1
 0 <= x(26,31,0) <= 1
 0 <= x(26,37,0) <= 1
 0 <= x(27,0,0) <= 1
 0 <= x(27,1,0) <= 1
 0 <= x(27,2,0) <= 1
 0 <= x(27,3,0) <= 1
 0 <= x(27,4,0) <= 1
 0 <= x(27,5,0) <= 1
 0 <= x(27,6,0) <= 1
 0 <= x(27,7,0) <= 1
 0 <= x(27,8,0) <= 1
 0 <= x(27,9,0) <= 1
 0 <= x(27,10,0) <= 1
 0 <= x(27,11,0) <= 1
 0 <= x(27,12,0) <= 1
 0 <= x(27,13,0) <= 1
 0 <= x(27,14,0) <= 1
 0 <= x(27,15,0) <= 1
 0 <= x(27,16,0) <= 1
 0 <= x(27,17,0) <= 1
 0 <= x(27,37,0) <= 1
 0 <= x(28,0,0) <= 1
 0 <= x(28,5,0) <= 1
 0 <= x(28,6,0) <= 1
 0 <= x(28,9,0) <= 1
 0 <= x(28,14,0) <= 1
 0 <= x(28,15,0) <= 1
 0 <= x(29,0,0) <= 1
 0 <= x(29,6,0) <= 1
 0 <= x(29,9,0) <= 1
 0 <= x(29,14,0) <= 1
 0 <= x(29,15,0) <= 1
 0 <= x(30,0,0) <= 1
 0 <= x(30,7,0) <= 1
 0 <= x(30,8,0) <= 1
 0 <= x(30,9,0) <= 1
 0 <= x(30,16,0) <= 1
 0 <= x(30,17,0) <= 1
 0 <= x(31,0,0) <= 1
 0 <= x(31,8,0) <= 1
 0 <= x(31,9,0) <= 1
 0 <= x(31,16,0) <= 1
 0 <= x(31,17,0) <= 1
 0 <= x(32,0,0) <= 1
 0 <= x(32,1,0) <= 1
 0 <= x(32,2,0) <= 1
 0 <= x(32,3,0) <= 1
 0 <= x(32,4,0) <= 1
 0 <= x(32,9,0) <= 1
 0 <= x(32,10,0) <= 1
 0 <= x(32,11,0) <= 1
 0 <= x(32,12,0) <= 1
 0 <= x(32,13,0) <= 1
 0 <= x(32,37,0) <= 1
 0 <= x(33,0,0) <= 1
 0 <= x(33,2,0) <= 1
 0 <= x(33,4,0) <= 1
 0 <= x(33,9,0) <= 1
 0 <= x(33,10,0) <= 1
 0 <= x(33,11,0) <= 1
 0 <= x(33,12,0) <= 1
 0 <= x(33,13,0) <= 1
 0 <= x(33,37,0) <= 1
 0 <= x(34,0,0) <= 1
 0 <= x(34,1,0) <= 1
 0 <= x(34,2,0) <= 1
 0 <= x(34,3,0) <= 1
 0 <= x(34,4,0) <= 1
 0 <= x(34,9,0) <= 1
 0 <= x(34,10,0) <= 1
 0 <= x(34,11,0) <= 1
 0 <= x(34,12,0) <= 1
 0 <= x(34,13,0) <= 1
 0 <= x(34,37,0) <= 1
 0 <= x(35,0,0) <= 1
 0 <= x(35,2,0) <= 1
 0 <= x(35,4,0) <= 1
 0 <= x(35,9,0) <= 1
 0 <= x(35,10,0) <= 1
 0 <= x(35,11,0) <= 1
 0 <= x(35,12,0) <= 1
 0 <= x(35,13,0) <= 1
 0 <= x(35,37,0) <= 1
 0 <= x(36,0,0) <= 1
 0 <= x(36,1,0) <= 1
 0 <= x(36,2,0) <= 1
 0 <= x(36,3,0) <= 1
 0 <= x(36,4,0) <= 1
 0 <= x(36,9,0) <= 1
 0 <= x(36,10,0) <= 1
 0 <= x(36,11,0) <= 1
 0 <= x(36,12,0) <= 1
 0 <= x(36,13,0) <= 1
 0 <= x(36,18,0) <= 1
 0 <= x(36,19,0) <= 1
 0 <= x(36,20,0) <= 1
 0 <= x(36,21,0) <= 1
 0 <= x(36,22,0) <= 1
 0 <= x(36,27,0) <= 1
 0 <= x(36,28,0) <= 1
 0 <= x(36,29,0) <= 1
 0 <= x(36,30,0) <= 1
 0 <= x(36,31,0) <= 1
      id472 = 0
Binaries
 x(0,9,0)  x(0,10,0)  x(0,11,0)  x(0,12,0)  x(0,13,0)  x(0,14,0)  x(0,15,0) 
 x(0,16,0)  x(0,17,0)  x(0,37,0)  x(1,9,0)  x(1,14,0)  x(1,15,0)  x(2,9,0) 
 x(2,14,0)  x(2,15,0)  x(3,9,0)  x(3,16,0)  x(3,17,0)  x(4,9,0)  x(4,16,0) 
 x(4,17,0)  x(5,9,0)  x(5,10,0)  x(5,11,0)  x(5,12,0)  x(5,13,0)  x(5,37,0) 
 x(6,9,0)  x(6,10,0)  x(6,11,0)  x(6,12,0)  x(6,13,0)  x(6,37,0)  x(7,9,0) 
 x(7,10,0)  x(7,11,0)  x(7,12,0)  x(7,13,0)  x(7,37,0)  x(8,9,0)  x(8,10,0) 
 x(8,11,0)  x(8,12,0)  x(8,13,0)  x(8,37,0)  x(9,37,0)  x(14,37,0)  x(15,37,0) 
 x(16,37,0)  x(17,37,0)  x(18,0,0)  x(18,1,0)  x(18,2,0)  x(18,3,0)  x(18,4,0) 
 x(18,5,0)  x(18,6,0)  x(18,7,0)  x(18,8,0)  x(18,9,0)  x(18,10,0)  x(18,11,0) 
 x(18,12,0)  x(18,13,0)  x(18,14,0)  x(18,15,0)  x(18,16,0)  x(18,17,0) 
 x(18,27,0)  x(18,28,0)  x(18,29,0)  x(18,30,0)  x(18,31,0)  x(18,32,0) 
 x(18,33,0)  x(18,34,0)  x(18,35,0)  x(18,37,0)  x(19,0,0)  x(19,5,0) 
 x(19,6,0)  x(19,9,0)  x(19,14,0)  x(19,15,0)  x(19,27,0)  x(19,32,0) 
 x(19,33,0)  x(20,0,0)  x(20,5,0)  x(20,6,0)  x(20,9,0)  x(20,14,0) 
 x(20,15,0)  x(20,27,0)  x(20,32,0)  x(20,33,0)  x(21,0,0)  x(21,7,0) 
 x(21,8,0)  x(21,9,0)  x(21,16,0)  x(21,17,0)  x(21,27,0)  x(21,34,0) 
 x(21,35,0)  x(22,0,0)  x(22,7,0)  x(22,8,0)  x(22,9,0)  x(22,16,0) 
 x(22,17,0)  x(22,27,0)  x(22,34,0)  x(22,35,0)  x(23,0,0)  x(23,1,0) 
 x(23,2,0)  x(23,3,0)  x(23,4,0)  x(23,9,0)  x(23,10,0)  x(23,11,0) 
 x(23,12,0)  x(23,13,0)  x(23,27,0)  x(23,28,0)  x(23,29,0)  x(23,30,0) 
 x(23,31,0)  x(23,37,0)  x(24,0,0)  x(24,1,0)  x(24,2,0)  x(24,3,0)  x(24,4,0) 
 x(24,9,0)  x(24,10,0)  x(24,11,0)  x(24,12,0)  x(24,13,0)  x(24,27,0) 
 x(24,28,0)  x(24,29,0)  x(24,30,0)  x(24,31,0)  x(24,37,0)  x(25,0,0) 
 x(25,1,0)  x(25,2,0)  x(25,3,0)  x(25,4,0)  x(25,9,0)  x(25,10,0)  x(25,11,0) 
 x(25,12,0)  x(25,13,0)  x(25,27,0)  x(25,28,0)  x(25,29,0)  x(25,30,0) 
 x(25,31,0)  x(25,37,0)  x(26,0,0)  x(26,1,0)  x(26,2,0)  x(26,3,0)  x(26,4,0) 
 x(26,9,0)  x(26,10,0)  x(26,11,0)  x(26,12,0)  x(26,13,0)  x(26,27,0) 
 x(26,28,0)  x(26,29,0)  x(26,30,0)  x(26,31,0)  x(26,37,0)  x(27,0,0) 
 x(27,1,0)  x(27,2,0)  x(27,3,0)  x(27,4,0)  x(27,5,0)  x(27,6,0)  x(27,7,0) 
 x(27,8,0)  x(27,9,0)  x(27,10,0)  x(27,11,0)  x(27,12,0)  x(27,13,0) 
 x(27,14,0)  x(27,15,0)  x(27,16,0)  x(27,17,0)  x(27,37,0)  x(28,0,0) 
 x(28,5,0)  x(28,6,0)  x(28,9,0)  x(28,14,0)  x(28,15,0)  x(29,0,0)  x(29,6,0) 
 x(29,9,0)  x(29,14,0)  x(29,15,0)  x(30,0,0)  x(30,7,0)  x(30,8,0)  x(30,9,0) 
 x(30,16,0)  x(30,17,0)  x(31,0,0)  x(31,8,0)  x(31,9,0)  x(31,16,0) 
 x(31,17,0)  x(32,0,0)  x(32,1,0)  x(32,2,0)  x(32,3,0)  x(32,4,0)  x(32,9,0) 
 x(32,10,0)  x(32,11,0)  x(32,12,0)  x(32,13,0)  x(32,37,0)  x(33,0,0) 
 x(33,2,0)  x(33,4,0)  x(33,9,0)  x(33,10,0)  x(33,11,0)  x(33,12,0) 
 x(33,13,0)  x(33,37,0)  x(34,0,0)  x(34,1,0)  x(34,2,0)  x(34,3,0)  x(34,4,0) 
 x(34,9,0)  x(34,10,0)  x(34,11,0)  x(34,12,0)  x(34,13,0)  x(34,37,0) 
 x(35,0,0)  x(35,2,0)  x(35,4,0)  x(35,9,0)  x(35,10,0)  x(35,11,0) 
 x(35,12,0)  x(35,13,0)  x(35,37,0)  x(36,0,0)  x(36,1,0)  x(36,2,0) 
 x(36,3,0)  x(36,4,0)  x(36,9,0)  x(36,10,0)  x(36,11,0)  x(36,12,0) 
 x(36,13,0)  x(36,18,0)  x(36,19,0)  x(36,20,0)  x(36,21,0)  x(36,22,0) 
 x(36,27,0)  x(36,28,0)  x(36,29,0)  x(36,30,0)  x(36,31,0) 
End
